Translating instance to solver...

Set parameter TimeLimit to value 28800
Gurobi Optimizer version 11.0.2 build v11.0.2rc0 (linux64 - "Ubuntu 22.04.4 LTS")

CPU model: Intel(R) Xeon(R) Gold 5120 CPU @ 2.20GHz, instruction set [SSE2|AVX|AVX2|AVX512]
Thread count: 28 physical cores, 56 logical processors, using up to 28 threads

Academic license 2463511 - for non-commercial use only - registered to lu___@cefet-rj.br
Optimize a model with 12725 rows, 7643 columns and 31653 nonzeros
Model fingerprint: 0xbc14c711
Variable types: 1 continuous, 7642 integer (7620 binary)
Coefficient statistics:
  Matrix range     [1e+00, 1e+05]
  Objective range  [3e-01, 8e-01]
  Bounds range     [1e+00, 2e+01]
  RHS range        [1e+00, 2e+01]
Presolve removed 10507 rows and 6685 columns
Presolve time: 0.17s
Presolved: 2218 rows, 958 columns, 7429 nonzeros
Variable types: 0 continuous, 958 integer (937 binary)

Root relaxation: objective 6.117820e-01, 225 iterations, 0.01 seconds (0.01 work units)

    Nodes    |    Current Node    |     Objective Bounds      |     Work
 Expl Unexpl |  Obj  Depth IntInf | Incumbent    BestBd   Gap | It/Node Time

     0     0    0.61178    0    9          -    0.61178      -     -    0s
H    0     0                       0.6117820    0.61178  0.00%     -    0s

Cutting planes:
  Gomory: 2
  Cover: 3
  Implied bound: 2
  Clique: 7
  Zero half: 1
  RLT: 2

Explored 1 nodes (402 simplex iterations) in 0.34 seconds (0.25 work units)
Thread count was 28 (of 56 available processors)

Solution count 1: 0.611782 

Optimal solution found (tolerance 1.00e-04)
Best objective 6.117820000000e-01, best bound 6.117820000000e-01, gap 0.0000%

Solver Wallclock Time (for this epsilon): 0.34008002281188965 s
Python wallclock Time (for this epsilon): 1.3884527683258057 s


Total Elapsed Time (since program call): 10.928160905838013 s

Results:

I = 0.611782 mA
C = 14.0 points
C ~= 5.6000000000000005 km^2

Minimum Epsilon for this instance = 10
Maximum Epsilon for this instance = 100

Current Epsilon = 10


Preprocessing Time (for this epsilon): 0.003402233123779297 s


Updated solution vectors:
sol_I = [-0.611782]
sol_C = [14.0]
sol_eps = [10]
sol_gap = [0.0]
